p wcnf 320 639 330 
330 1 2 0
330 1 3 0
330 1 4 0
330 1 5 0
330 1 6 0
330 1 7 0
330 1 8 0
330 1 9 0
330 1 10 0
330 1 11 0
330 1 12 0
330 1 13 0
330 1 14 0
330 1 15 0
330 1 16 0
330 1 17 0
330 1 18 0
330 1 19 0
330 1 20 0
330 1 21 0
330 1 22 0
330 1 23 0
330 1 24 0
330 1 25 0
330 1 26 0
330 1 27 0
330 1 28 0
330 1 29 0
330 1 30 0
330 1 31 0
330 1 32 0
330 1 33 0
330 1 34 0
330 1 35 0
330 1 36 0
330 1 37 0
330 1 38 0
330 1 39 0
330 1 40 0
330 1 41 0
330 1 42 0
330 1 43 0
330 1 44 0
330 1 45 0
330 1 46 0
330 1 47 0
330 1 48 0
330 1 49 0
330 1 50 0
330 1 51 0
330 1 52 0
330 1 53 0
330 1 54 0
330 1 55 0
330 1 56 0
330 1 57 0
330 1 58 0
330 1 59 0
330 1 60 0
330 1 61 0
330 1 62 0
330 1 63 0
330 1 64 0
330 1 65 0
330 1 66 0
330 1 67 0
330 1 68 0
330 1 69 0
330 1 70 0
330 1 71 0
330 1 72 0
330 1 73 0
330 1 74 0
330 1 75 0
330 1 76 0
330 1 77 0
330 1 78 0
330 1 79 0
330 1 80 0
330 1 81 0
330 1 82 0
330 1 83 0
330 1 84 0
330 1 85 0
330 1 86 0
330 1 87 0
330 1 88 0
330 1 89 0
330 1 90 0
330 1 91 0
330 1 92 0
330 1 93 0
330 1 94 0
330 1 95 0
330 1 96 0
330 1 97 0
330 1 98 0
330 1 99 0
330 1 100 0
330 1 101 0
330 1 102 0
330 1 103 0
330 1 104 0
330 1 105 0
330 1 106 0
330 1 107 0
330 1 108 0
330 1 109 0
330 1 110 0
330 1 111 0
330 1 112 0
330 1 113 0
330 1 114 0
330 1 115 0
330 1 116 0
330 1 117 0
330 1 118 0
330 1 119 0
330 1 120 0
330 1 121 0
330 1 122 0
330 1 123 0
330 1 124 0
330 1 125 0
330 1 126 0
330 1 127 0
330 1 128 0
330 1 129 0
330 1 130 0
330 1 131 0
330 1 132 0
330 1 133 0
330 1 134 0
330 1 135 0
330 1 136 0
330 1 137 0
330 1 138 0
330 1 139 0
330 1 140 0
330 1 141 0
330 1 142 0
330 1 143 0
330 1 144 0
330 1 145 0
330 1 146 0
330 1 147 0
330 1 148 0
330 1 149 0
330 1 150 0
330 1 151 0
330 1 152 0
330 1 153 0
330 1 154 0
330 1 155 0
330 1 156 0
330 1 157 0
330 1 158 0
330 1 159 0
330 1 160 0
330 1 161 0
330 1 162 0
330 1 163 0
330 1 164 0
330 1 165 0
330 1 166 0
330 1 167 0
330 1 168 0
330 1 169 0
330 1 170 0
330 1 171 0
330 1 172 0
330 1 173 0
330 1 174 0
330 1 175 0
330 1 176 0
330 1 177 0
330 1 178 0
330 1 179 0
330 1 180 0
330 1 181 0
330 1 182 0
330 1 183 0
330 1 184 0
330 1 185 0
330 1 186 0
330 1 187 0
330 1 188 0
330 1 189 0
330 1 190 0
330 1 191 0
330 1 192 0
330 1 193 0
330 1 194 0
330 1 195 0
330 1 196 0
330 1 197 0
330 1 198 0
330 1 199 0
330 1 200 0
330 1 201 0
330 1 202 0
330 1 203 0
330 1 204 0
330 1 205 0
330 1 206 0
330 1 207 0
330 1 208 0
330 1 209 0
330 1 210 0
330 1 211 0
330 1 212 0
330 1 213 0
330 1 214 0
330 1 215 0
330 1 216 0
330 1 217 0
330 1 218 0
330 1 219 0
330 1 220 0
330 1 221 0
330 1 222 0
330 1 223 0
330 1 224 0
330 1 225 0
330 1 226 0
330 1 227 0
330 1 228 0
330 1 229 0
330 1 230 0
330 1 231 0
330 1 232 0
330 1 233 0
330 1 234 0
330 1 235 0
330 1 236 0
330 1 237 0
330 1 238 0
330 1 239 0
330 1 240 0
330 1 241 0
330 1 242 0
330 1 243 0
330 1 244 0
330 1 245 0
330 1 246 0
330 1 247 0
330 1 248 0
330 1 249 0
330 1 250 0
330 1 251 0
330 1 252 0
330 1 253 0
330 1 254 0
330 1 255 0
330 1 256 0
330 1 257 0
330 1 258 0
330 1 259 0
330 1 260 0
330 1 261 0
330 1 262 0
330 1 263 0
330 1 264 0
330 1 265 0
330 1 266 0
330 1 267 0
330 1 268 0
330 1 269 0
330 1 270 0
330 1 271 0
330 1 272 0
330 1 273 0
330 1 274 0
330 1 275 0
330 1 276 0
330 1 277 0
330 1 278 0
330 1 279 0
330 1 280 0
330 1 281 0
330 1 282 0
330 1 283 0
330 1 284 0
330 1 285 0
330 1 286 0
330 1 287 0
330 1 288 0
330 1 289 0
330 1 290 0
330 1 291 0
330 1 292 0
330 1 293 0
330 1 294 0
330 1 295 0
330 1 296 0
330 1 297 0
330 1 298 0
330 1 299 0
330 1 300 0
330 1 301 0
330 1 302 0
330 1 303 0
330 1 304 0
330 1 305 0
330 1 306 0
330 1 307 0
330 1 308 0
330 1 309 0
330 1 310 0
330 1 311 0
330 1 312 0
330 1 313 0
330 1 314 0
330 1 315 0
330 1 316 0
330 1 317 0
330 1 318 0
330 1 319 0
330 1 320 0
1 -1 0
1 -2 0
1 -3 0
1 -4 0
1 -5 0
1 -6 0
1 -7 0
1 -8 0
1 -9 0
1 -10 0
1 -11 0
1 -12 0
1 -13 0
1 -14 0
1 -15 0
1 -16 0
1 -17 0
1 -18 0
1 -19 0
1 -20 0
1 -21 0
1 -22 0
1 -23 0
1 -24 0
1 -25 0
1 -26 0
1 -27 0
1 -28 0
1 -29 0
1 -30 0
1 -31 0
1 -32 0
1 -33 0
1 -34 0
1 -35 0
1 -36 0
1 -37 0
1 -38 0
1 -39 0
1 -40 0
1 -41 0
1 -42 0
1 -43 0
1 -44 0
1 -45 0
1 -46 0
1 -47 0
1 -48 0
1 -49 0
1 -50 0
1 -51 0
1 -52 0
1 -53 0
1 -54 0
1 -55 0
1 -56 0
1 -57 0
1 -58 0
1 -59 0
1 -60 0
1 -61 0
1 -62 0
1 -63 0
1 -64 0
1 -65 0
1 -66 0
1 -67 0
1 -68 0
1 -69 0
1 -70 0
1 -71 0
1 -72 0
1 -73 0
1 -74 0
1 -75 0
1 -76 0
1 -77 0
1 -78 0
1 -79 0
1 -80 0
1 -81 0
1 -82 0
1 -83 0
1 -84 0
1 -85 0
1 -86 0
1 -87 0
1 -88 0
1 -89 0
1 -90 0
1 -91 0
1 -92 0
1 -93 0
1 -94 0
1 -95 0
1 -96 0
1 -97 0
1 -98 0
1 -99 0
1 -100 0
1 -101 0
1 -102 0
1 -103 0
1 -104 0
1 -105 0
1 -106 0
1 -107 0
1 -108 0
1 -109 0
1 -110 0
1 -111 0
1 -112 0
1 -113 0
1 -114 0
1 -115 0
1 -116 0
1 -117 0
1 -118 0
1 -119 0
1 -120 0
1 -121 0
1 -122 0
1 -123 0
1 -124 0
1 -125 0
1 -126 0
1 -127 0
1 -128 0
1 -129 0
1 -130 0
1 -131 0
1 -132 0
1 -133 0
1 -134 0
1 -135 0
1 -136 0
1 -137 0
1 -138 0
1 -139 0
1 -140 0
1 -141 0
1 -142 0
1 -143 0
1 -144 0
1 -145 0
1 -146 0
1 -147 0
1 -148 0
1 -149 0
1 -150 0
1 -151 0
1 -152 0
1 -153 0
1 -154 0
1 -155 0
1 -156 0
1 -157 0
1 -158 0
1 -159 0
1 -160 0
1 -161 0
1 -162 0
1 -163 0
1 -164 0
1 -165 0
1 -166 0
1 -167 0
1 -168 0
1 -169 0
1 -170 0
1 -171 0
1 -172 0
1 -173 0
1 -174 0
1 -175 0
1 -176 0
1 -177 0
1 -178 0
1 -179 0
1 -180 0
1 -181 0
1 -182 0
1 -183 0
1 -184 0
1 -185 0
1 -186 0
1 -187 0
1 -188 0
1 -189 0
1 -190 0
1 -191 0
1 -192 0
1 -193 0
1 -194 0
1 -195 0
1 -196 0
1 -197 0
1 -198 0
1 -199 0
1 -200 0
1 -201 0
1 -202 0
1 -203 0
1 -204 0
1 -205 0
1 -206 0
1 -207 0
1 -208 0
1 -209 0
1 -210 0
1 -211 0
1 -212 0
1 -213 0
1 -214 0
1 -215 0
1 -216 0
1 -217 0
1 -218 0
1 -219 0
1 -220 0
1 -221 0
1 -222 0
1 -223 0
1 -224 0
1 -225 0
1 -226 0
1 -227 0
1 -228 0
1 -229 0
1 -230 0
1 -231 0
1 -232 0
1 -233 0
1 -234 0
1 -235 0
1 -236 0
1 -237 0
1 -238 0
1 -239 0
1 -240 0
1 -241 0
1 -242 0
1 -243 0
1 -244 0
1 -245 0
1 -246 0
1 -247 0
1 -248 0
1 -249 0
1 -250 0
1 -251 0
1 -252 0
1 -253 0
1 -254 0
1 -255 0
1 -256 0
1 -257 0
1 -258 0
1 -259 0
1 -260 0
1 -261 0
1 -262 0
1 -263 0
1 -264 0
1 -265 0
1 -266 0
1 -267 0
1 -268 0
1 -269 0
1 -270 0
1 -271 0
1 -272 0
1 -273 0
1 -274 0
1 -275 0
1 -276 0
1 -277 0
1 -278 0
1 -279 0
1 -280 0
1 -281 0
1 -282 0
1 -283 0
1 -284 0
1 -285 0
1 -286 0
1 -287 0
1 -288 0
1 -289 0
1 -290 0
1 -291 0
1 -292 0
1 -293 0
1 -294 0
1 -295 0
1 -296 0
1 -297 0
1 -298 0
1 -299 0
1 -300 0
1 -301 0
1 -302 0
1 -303 0
1 -304 0
1 -305 0
1 -306 0
1 -307 0
1 -308 0
1 -309 0
1 -310 0
1 -311 0
1 -312 0
1 -313 0
1 -314 0
1 -315 0
1 -316 0
1 -317 0
1 -318 0
1 -319 0
1 -320 0
